#=======================================================
# FHI-aims file: /tmp/tmpmbk4xhkc/tar/input_files/geometry.in
# Created using the Atomic Simulation Environment (ASE)
# Tue Nov 19 08:42:28 2024
#=======================================================
lattice_vector 3.6913825500000002 0.0000000000000000 0.0000000000000000 
lattice_vector -1.8456912749999992 3.1968310633865813 0.0000000000000000 
lattice_vector 0.0000000000000000 0.0000000000000000 6.0410770100000004 
atom_frac 0.0000000000000000 0.0000000000000000 0.0000000000000000 Zr
atom_frac 0.6666666700000000 0.3333333300000000 0.7620900300000002 S
atom_frac 0.3333333300000000 0.6666666700000000 0.2379099700000000 S
