#===============================================================================
# Created using the Atomic Simulation Environment (ASE)

# Wed Nov  6 13:16:32 2024

#=======================================================
lattice_vector 3.9866931540000006 0.0000000000000000 0.0000000000000000
lattice_vector -1.9933465769999992 3.4525775484575081 0.0000000000000000
lattice_vector 0.0000000000000000 0.0000000000000000 6.0410770100000004
atom 0.0000000000000000 0.0000000000000000 0.0000000000000000 Zr
atom 1.8456912934569132 1.0656103438060902 4.6038445597832114 S
atom -0.0000000184569124 2.1312207195804911 1.4372324502167897 S
