#===============================================================================
# Created using the Atomic Simulation Environment (ASE)

# Wed Nov  6 13:16:32 2024

#=======================================================
lattice_vector 3.8759516775000002 0.0000000000000000 0.0000000000000000
lattice_vector -1.9379758387499992 3.3566726165559104 0.0000000000000000
lattice_vector 0.0000000000000000 0.0000000000000000 6.0410770100000004
atom 0.0000000000000000 0.0000000000000000 0.0000000000000000 Zr
atom 1.8456912934569132 1.0656103438060902 4.6038445597832114 S
atom -0.0000000184569124 2.1312207195804911 1.4372324502167897 S
